(declare-sort $$unsorted 0)
(declare-fun tptp.op ($$unsorted $$unsorted) $$unsorted)
(assert (forall ((X0 $$unsorted) (X1 $$unsorted) (X2 $$unsorted)) (let ((_let_1 (tptp.op X1 X0))) (= X0 (tptp.op _let_1 (tptp.op X2 _let_1))))))
(assert (not (forall ((X0 $$unsorted) (X1 $$unsorted) (X2 $$unsorted)) (= X0 (tptp.op X1 (tptp.op X2 (tptp.op X2 X0)))))))
(set-info :filename Equation1502_implies_Equation90)
(check-sat-assuming ( true ))
